100 4 100
63 55 56 43 46 14 7 13 63 1 78 14 34 44 70 25 24 74 28 31 91 71 87 57 81 93 44 62 68 90 64 84 45 72 27 91 86 86 57 1 87 87 16 21 84 38 98 60 12 78 92 4 50 31 13 83 24 57 45 44 47 10 28 92 82 7 36 21 94 45 74 33 32 42 7 16 81 5 77 93 84 69 49 86 52 62 69 76 19 14 20 18 76 1 63 11 8 51 84 2 
